(set-info :Origin "This instance was generated by: BanditFuzz-- an RL fuzzer for SMT solvers" )
(set-info :Author "Joe Scott, Fed Mora, Vijay Ganesh" )
(set-info :Contact "Joe Scott, joseph.scott@uwaterloo.ca")
(set-logic QF_BV)
(declare-const bool_0 Bool)
(declare-const bool_1 Bool)
(declare-const bool_2 Bool)
(declare-const bool_3 Bool)
(declare-const bool_4 Bool)
(declare-const bv_0 (_ BitVec 32))
(declare-const bv_1 (_ BitVec 32))
(declare-const bv_2 (_ BitVec 32))
(declare-const bv_3 (_ BitVec 32))
(declare-const bv_4 (_ BitVec 32))
(assert (bvslt (bvudiv (bvxnor bv_1 #x12c697f6 ) (bvsub #x957c44fc  bv_3)) (bvashr (bvnor #x2b0cc32a  #xa01c3b6d ) (bvurem #x91e48895  #xa39510cf ))))
(assert (bvsge (bvlshr (bvsrem #x3177bfaf  #xa81f892c ) (bvxor #x6bfee1b9  #x778e70d2 )) (bvsmod (bvadd bv_1 #xa8c29148 ) (bvshl #x7b0e748a  #x664d3a4e ))))
(assert (bvult (bvadd (bvor bv_0 bv_2) (bvlshr #xc4a48fce  #x7cae4617 )) (bvnand (bvsmod bv_0 bv_1) (bvnand #x3c465456  bv_3))))
(assert (bvslt (bvudiv (bvurem bv_0 #x150315ce ) (bvnand bv_0 bv_4)) (bvand (bvudiv #x8f319181  #xe9a55695 ) (bvmul #x2839b90c  #xaa51044e ))))
(assert (bvsge (bvxnor (bvnor #x6ce860f7  bv_4) (bvxor #x03f61483  #x428f4e5f )) (bvsrem (bvmul #x4a776229  bv_0) (bvsmod #x07ff6603  bv_0))))
(check-sat)
(exit)
